<number of tasks>
45

<cycle time>
79

<task times>
1 9
2 9
3 10
4 10
5 17
6 17
7 13
8 13
9 20
10 20
11 10
12 11
13 6
14 22
15 11
16 19
17 12
18 3
19 7
20 4
21 55
22 14
23 27
24 29
25 26
26 6
27 5
28 24
29 4
30 5
31 7
32 4
33 15
34 3
35 7
36 9
37 4
38 7
39 5
40 4
41 21
42 12
43 6
44 5
45 5

<precedence relations>
1,3
1,7
2,4
2,8
3,5
4,6
5,9
6,10
7,9
7,14
8,10
8,14
9,41
10,41
11,13
12,13
12,37
13,14
13,15
14,17
14,25
14,29
14,30
14,31
14,32
15,16
15,18
15,23
15,24
16,19
17,26
17,27
18,19
19,20
19,33
20,21
21,22
22,28
23,33
24,33
25,26
26,38
27,28
27,33
28,38
29,41
30,41
31,41
32,41
33,34
33,35
33,36
34,38
35,40
36,38
37,43
38,40
39,41
40,41
41,42
42,44
42,45

<setup times forward>
1,4:1
1,6:1
1,8:2
1,10:1
1,16:2
1,18:2
1,19:1
1,20:1
1,21:1
1,22:1
1,23:1
1,24:1
1,37:1
1,39:2
1,43:1
2,4:1
2,5:2
2,8:2
2,9:1
2,16:2
2,18:2
2,19:1
2,20:1
2,21:1
2,22:1
2,23:1
2,24:1
2,37:1
2,39:2
2,43:1
3,4:1
3,5:2
3,6:1
3,8:2
3,10:1
3,14:2
3,16:2
3,17:1
3,18:2
3,19:1
3,20:1
3,21:1
3,22:1
3,23:1
3,24:1
3,25:1
3,26:1
3,27:1
3,29:1
3,30:1
3,31:1
3,32:1
3,33:1
3,34:1
3,35:1
3,36:1
3,37:1
3,39:2
3,43:1
4,1:1
4,3:1
4,5:3
4,6:2
4,7:1
4,8:3
4,9:2
4,11:1
4,12:1
4,13:1
4,14:3
4,15:1
4,16:3
4,17:2
4,18:3
4,19:2
4,20:2
4,21:2
4,23:2
4,28:1
4,29:2
4,30:2
4,31:2
4,38:1
4,39:3
4,40:1
5,2:2
5,4:3
5,6:1
5,7:2
5,9:1
5,10:3
5,11:2
5,12:2
5,13:2
5,15:2
5,17:1
5,19:1
5,20:1
5,21:1
5,22:3
5,23:1
5,24:3
5,25:3
5,26:3
5,27:3
5,28:2
5,29:1
5,30:1
5,31:1
5,32:3
5,33:3
5,34:3
5,35:3
5,36:3
5,37:3
5,38:2
5,40:2
5,43:3
6,1:1
6,3:1
6,5:1
6,7:1
6,8:1
6,10:2
6,11:1
6,12:1
6,13:1
6,14:1
6,15:1
6,16:1
6,18:1
6,22:2
6,24:2
6,25:2
6,26:2
6,27:2
6,28:1
6,32:2
6,33:2
6,34:2
6,35:2
6,36:2
6,37:2
6,38:1
6,39:1
6,40:1
6,43:2
7,4:1
7,5:2
7,6:1
7,8:2
7,9:1
7,10:1
7,14:2
7,16:2
7,18:2
7,19:1
7,20:1
7,21:1
7,22:1
7,23:1
7,24:1
7,37:1
7,39:2
7,43:1
8,1:2
8,3:2
8,4:3
8,6:1
8,7:2
8,9:1
8,10:3
8,11:2
8,12:2
8,13:2
8,15:2
8,19:1
8,20:1
8,21:1
8,22:3
8,23:1
8,24:3
8,37:3
8,43:3
9,2:1
9,4:2
9,8:1
9,10:2
9,11:1
9,12:1
9,13:1
9,14:1
9,15:1
9,16:1
9,18:1
9,22:2
9,24:2
9,25:2
9,26:2
9,27:2
9,28:1
9,32:2
9,33:2
9,34:2
9,35:2
9,36:2
9,37:2
9,38:1
9,39:1
9,40:1
9,41:1
9,43:2
10,1:1
10,3:1
10,5:3
10,7:1
10,9:2
10,11:1
10,12:1
10,13:1
10,14:3
10,15:1
10,16:3
10,17:2
10,18:3
10,19:2
10,20:2
10,21:2
10,23:2
10,28:1
10,29:2
10,30:2
10,31:2
10,38:1
10,39:3
10,40:1
10,41:1
11,4:1
11,5:2
11,6:1
11,8:2
11,9:1
11,10:1
11,37:1
11,39:2
11,43:1
12,4:1
12,5:2
12,6:1
12,8:2
12,9:1
12,10:1
12,37:1
12,39:2
13,4:1
13,5:2
13,6:1
13,8:2
13,9:1
13,10:1
13,14:2
13,37:1
13,39:2
13,43:1
14,3:2
14,4:3
14,6:1
14,9:1
14,10:3
14,15:2
14,17:1
14,19:1
14,20:1
14,21:1
14,22:3
14,23:1
14,24:3
14,25:3
14,29:1
14,30:1
14,31:1
14,32:3
14,37:3
14,43:3
15,4:1
15,5:2
15,6:1
15,8:2
15,9:1
15,10:1
15,14:2
15,16:2
15,17:1
15,18:2
15,23:1
15,24:1
15,25:1
15,26:1
15,27:1
15,29:1
15,30:1
15,31:1
15,32:1
15,37:1
15,39:2
15,43:1
16,1:2
16,2:2
16,3:2
16,4:3
16,6:1
16,7:2
16,9:1
16,10:3
16,17:1
16,19:1
16,23:1
16,24:3
16,25:3
16,26:3
16,27:3
16,29:1
16,30:1
16,31:1
16,32:3
16,37:3
16,43:3
17,3:1
17,4:2
17,5:1
17,10:2
17,15:1
17,16:1
17,18:1
17,22:2
17,24:2
17,25:2
17,26:2
17,27:2
17,32:2
17,37:2
17,39:1
17,43:2
18,1:2
18,2:2
18,3:2
18,4:3
18,6:1
18,7:2
18,9:1
18,10:3
18,17:1
18,19:1
18,23:1
18,24:3
18,25:3
18,26:3
18,27:3
18,29:1
18,30:1
18,31:1
18,32:3
18,37:3
18,43:3
19,1:1
19,2:1
19,3:1
19,4:2
19,5:1
19,7:1
19,8:1
19,10:2
19,14:1
19,24:2
19,25:2
19,26:2
19,27:2
19,32:2
19,33:2
19,37:2
19,39:1
19,43:2
20,1:1
20,2:1
20,3:1
20,4:2
20,5:1
20,7:1
20,8:1
20,10:2
20,14:1
20,24:2
20,25:2
20,26:2
20,27:2
20,32:2
20,33:2
20,34:2
20,35:2
20,36:2
20,37:2
20,39:1
20,43:2
21,1:1
21,2:1
21,3:1
21,4:2
21,5:1
21,7:1
21,8:1
21,10:2
21,14:1
21,22:2
21,24:2
21,25:2
21,26:2
21,27:2
21,32:2
21,33:2
21,34:2
21,35:2
21,36:2
21,37:2
21,39:1
21,43:2
22,1:1
22,2:1
22,3:1
22,5:3
22,6:2
22,7:1
22,8:3
22,9:2
22,14:3
22,17:2
22,23:2
22,28:1
22,29:2
22,30:2
22,31:2
22,39:3
23,1:1
23,2:1
23,3:1
23,4:2
23,5:1
23,7:1
23,8:1
23,10:2
23,14:1
23,16:1
23,18:1
23,22:2
23,24:2
23,25:2
23,26:2
23,27:2
23,28:1
23,32:2
23,33:2
23,37:2
23,39:1
23,43:2
24,1:1
24,2:1
24,3:1
24,5:3
24,6:2
24,7:1
24,8:3
24,9:2
24,14:3
24,16:3
24,17:2
24,18:3
24,19:2
24,20:2
24,21:2
24,23:2
24,28:1
24,29:2
24,30:2
24,31:2
24,39:3
25,3:1
25,5:3
25,6:2
25,9:2
25,15:1
25,16:3
25,17:2
25,18:3
25,19:2
25,20:2
25,21:2
25,23:2
25,28:1
25,29:2
25,30:2
25,31:2
25,39:3
26,3:1
26,5:3
26,6:2
26,9:2
26,15:1
26,16:3
26,18:3
26,19:2
26,20:2
26,21:2
26,23:2
26,28:1
26,29:2
26,30:2
26,31:2
26,38:1
26,39:3
27,3:1
27,5:3
27,6:2
27,9:2
27,15:1
27,16:3
27,18:3
27,19:2
27,20:2
27,21:2
27,23:2
27,28:1
27,29:2
27,30:2
27,31:2
27,39:3
28,4:1
28,5:2
28,6:1
28,9:1
28,10:1
28,23:1
28,24:1
28,25:1
28,26:1
28,29:1
28,30:1
28,31:1
28,32:1
28,33:1
28,34:1
28,35:1
28,36:1
28,37:1
28,39:2
28,43:1
29,3:1
29,4:2
29,5:1
29,10:2
29,15:1
29,16:1
29,18:1
29,22:2
29,24:2
29,25:2
29,26:2
29,27:2
29,28:1
29,32:2
29,33:2
29,34:2
29,35:2
29,36:2
29,37:2
29,38:1
29,39:1
29,40:1
29,41:1
29,43:2
30,3:1
30,4:2
30,5:1
30,10:2
30,15:1
30,16:1
30,18:1
30,22:2
30,24:2
30,25:2
30,26:2
30,27:2
30,28:1
30,32:2
30,33:2
30,34:2
30,35:2
30,36:2
30,37:2
30,38:1
30,39:1
30,40:1
30,41:1
30,43:2
31,3:1
31,4:2
31,5:1
31,10:2
31,15:1
31,16:1
31,18:1
31,22:2
31,24:2
31,25:2
31,26:2
31,27:2
31,28:1
31,32:2
31,33:2
31,34:2
31,35:2
31,36:2
31,37:2
31,38:1
31,39:1
31,40:1
31,41:1
31,43:2
32,3:1
32,5:3
32,6:2
32,9:2
32,15:1
32,16:3
32,17:2
32,18:3
32,19:2
32,20:2
32,21:2
32,23:2
32,28:1
32,29:2
32,30:2
32,31:2
32,38:1
32,39:3
32,40:1
32,41:1
33,3:1
33,5:3
33,6:2
33,9:2
33,20:2
33,21:2
33,28:1
33,29:2
33,30:2
33,31:2
33,39:3
34,3:1
34,5:3
34,6:2
34,9:2
34,20:2
34,21:2
34,28:1
34,29:2
34,30:2
34,31:2
34,38:1
34,39:3
35,3:1
35,5:3
35,6:2
35,9:2
35,20:2
35,21:2
35,28:1
35,29:2
35,30:2
35,31:2
35,38:1
35,39:3
35,40:1
36,3:1
36,5:3
36,6:2
36,9:2
36,20:2
36,21:2
36,28:1
36,29:2
36,30:2
36,31:2
36,38:1
36,39:3
37,1:1
37,2:1
37,3:1
37,5:3
37,6:2
37,7:1
37,8:3
37,9:2
37,11:1
37,13:1
37,14:3
37,15:1
37,16:3
37,17:2
37,18:3
37,19:2
37,20:2
37,21:2
37,23:2
37,28:1
37,29:2
37,30:2
37,31:2
37,38:1
37,39:3
37,40:1
37,41:1
37,42:1
37,44:1
37,45:1
38,4:1
38,5:2
38,6:1
38,9:1
38,10:1
38,29:1
38,30:1
38,31:1
38,32:1
38,35:1
38,37:1
38,39:2
38,43:1
39,1:2
39,2:2
39,3:2
39,4:3
39,6:1
39,7:2
39,9:1
39,10:3
39,11:2
39,12:2
39,13:2
39,15:2
39,17:1
39,19:1
39,20:1
39,21:1
39,22:3
39,23:1
39,24:3
39,25:3
39,26:3
39,27:3
39,28:2
39,29:1
39,30:1
39,31:1
39,32:3
39,33:3
39,34:3
39,35:3
39,36:3
39,37:3
39,38:2
39,40:2
39,41:2
39,43:3
40,4:1
40,5:2
40,6:1
40,9:1
40,10:1
40,29:1
40,30:1
40,31:1
40,32:1
40,37:1
40,39:2
40,43:1
41,37:1
41,43:1
42,37:1
42,43:1
43,1:1
43,2:1
43,3:1
43,5:3
43,6:2
43,7:1
43,8:3
43,9:2
43,11:1
43,13:1
43,14:3
43,15:1
43,16:3
43,17:2
43,18:3
43,19:2
43,20:2
43,21:2
43,23:2
43,28:1
43,29:2
43,30:2
43,31:2
43,38:1
43,39:3
43,40:1
43,41:1
43,42:1
43,44:1
43,45:1
44,37:1
44,43:1
45,37:1
45,43:1

<setup times backward>
1,4:1
1,10:1
1,22:1
1,24:1
1,37:1
1,43:1
2,22:1
2,24:1
2,37:1
2,43:1
3,4:1
3,10:1
3,22:1
3,24:1
3,25:1
3,26:1
3,27:1
3,32:1
3,33:1
3,34:1
3,35:1
3,36:1
3,37:1
3,43:1
5,1:2
5,2:2
5,3:2
5,4:3
5,6:1
5,7:2
5,10:3
5,11:2
5,12:2
5,13:2
5,15:2
5,17:1
5,19:1
5,20:1
5,21:1
5,22:3
5,23:1
5,24:3
5,25:3
5,26:3
5,27:3
5,28:2
5,29:1
5,30:1
5,31:1
5,32:3
5,33:3
5,34:3
5,35:3
5,36:3
5,37:3
5,38:2
5,40:2
5,43:3
6,1:1
6,2:1
6,3:1
6,4:2
6,7:1
6,11:1
6,12:1
6,13:1
6,15:1
6,22:2
6,24:2
6,25:2
6,26:2
6,27:2
6,28:1
6,32:2
6,33:2
6,34:2
6,35:2
6,36:2
6,37:2
6,38:1
6,40:1
6,43:2
7,4:1
7,10:1
7,22:1
7,24:1
7,37:1
7,43:1
8,1:2
8,2:2
8,3:2
8,4:3
8,6:1
8,7:2
8,9:1
8,11:2
8,12:2
8,13:2
8,15:2
8,19:1
8,20:1
8,21:1
8,22:3
8,23:1
8,24:3
8,37:3
8,43:3
9,1:1
9,2:1
9,3:1
9,4:2
9,7:1
9,10:2
9,11:1
9,12:1
9,13:1
9,15:1
9,22:2
9,24:2
9,25:2
9,26:2
9,27:2
9,28:1
9,32:2
9,33:2
9,34:2
9,35:2
9,36:2
9,37:2
9,38:1
9,40:1
9,43:2
11,4:1
11,10:1
11,37:1
11,43:1
12,4:1
12,10:1
13,4:1
13,10:1
13,37:1
13,43:1
14,1:2
14,2:2
14,3:2
14,4:3
14,6:1
14,7:2
14,9:1
14,10:3
14,11:2
14,12:2
14,13:2
14,15:2
14,19:1
14,20:1
14,21:1
14,22:3
14,23:1
14,24:3
14,37:3
14,43:3
15,4:1
15,10:1
15,25:1
15,26:1
15,27:1
15,32:1
15,37:1
15,43:1
16,1:2
16,2:2
16,3:2
16,4:3
16,6:1
16,7:2
16,9:1
16,10:3
16,11:2
16,12:2
16,13:2
16,15:2
16,17:1
16,23:1
16,24:3
16,25:3
16,26:3
16,27:3
16,29:1
16,30:1
16,31:1
16,32:3
16,37:3
16,43:3
17,1:1
17,2:1
17,3:1
17,4:2
17,7:1
17,10:2
17,11:1
17,12:1
17,13:1
17,15:1
17,22:2
17,24:2
17,25:2
17,32:2
17,37:2
17,43:2
18,1:2
18,2:2
18,3:2
18,4:3
18,6:1
18,7:2
18,9:1
18,10:3
18,11:2
18,12:2
18,13:2
18,15:2
18,17:1
18,23:1
18,24:3
18,25:3
18,26:3
18,27:3
18,29:1
18,30:1
18,31:1
18,32:3
18,37:3
18,43:3
19,1:1
19,2:1
19,3:1
19,4:2
19,7:1
19,10:2
19,11:1
19,12:1
19,13:1
19,15:1
19,24:2
19,25:2
19,26:2
19,27:2
19,32:2
19,37:2
19,43:2
20,1:1
20,2:1
20,3:1
20,4:2
20,7:1
20,10:2
20,11:1
20,12:1
20,13:1
20,15:1
20,24:2
20,25:2
20,26:2
20,27:2
20,32:2
20,33:2
20,34:2
20,35:2
20,36:2
20,37:2
20,43:2
21,1:1
21,2:1
21,3:1
21,4:2
21,7:1
21,10:2
21,11:1
21,12:1
21,13:1
21,15:1
21,24:2
21,25:2
21,26:2
21,27:2
21,32:2
21,33:2
21,34:2
21,35:2
21,36:2
21,37:2
21,43:2
23,1:1
23,2:1
23,3:1
23,4:2
23,7:1
23,10:2
23,11:1
23,12:1
23,13:1
23,15:1
23,22:2
23,24:2
23,25:2
23,26:2
23,27:2
23,28:1
23,32:2
23,37:2
23,43:2
28,4:1
28,10:1
28,22:1
28,24:1
28,25:1
28,26:1
28,27:1
28,32:1
28,33:1
28,34:1
28,35:1
28,36:1
28,37:1
28,43:1
29,1:1
29,2:1
29,3:1
29,4:2
29,7:1
29,10:2
29,11:1
29,12:1
29,13:1
29,15:1
29,22:2
29,24:2
29,25:2
29,26:2
29,27:2
29,28:1
29,32:2
29,33:2
29,34:2
29,35:2
29,36:2
29,37:2
29,38:1
29,40:1
29,43:2
30,1:1
30,2:1
30,3:1
30,4:2
30,7:1
30,10:2
30,11:1
30,12:1
30,13:1
30,15:1
30,22:2
30,24:2
30,25:2
30,26:2
30,27:2
30,28:1
30,32:2
30,33:2
30,34:2
30,35:2
30,36:2
30,37:2
30,38:1
30,40:1
30,43:2
31,1:1
31,2:1
31,3:1
31,4:2
31,7:1
31,10:2
31,11:1
31,12:1
31,13:1
31,15:1
31,22:2
31,24:2
31,25:2
31,26:2
31,27:2
31,28:1
31,32:2
31,33:2
31,34:2
31,35:2
31,36:2
31,37:2
31,38:1
31,40:1
31,43:2
38,4:1
38,10:1
38,22:1
38,24:1
38,25:1
38,26:1
38,27:1
38,32:1
38,33:1
38,34:1
38,35:1
38,36:1
38,37:1
38,43:1
39,1:2
39,2:2
39,3:2
39,4:3
39,6:1
39,7:2
39,9:1
39,10:3
39,11:2
39,12:2
39,13:2
39,15:2
39,17:1
39,19:1
39,20:1
39,21:1
39,22:3
39,23:1
39,24:3
39,25:3
39,26:3
39,27:3
39,28:2
39,29:1
39,30:1
39,31:1
39,32:3
39,33:3
39,34:3
39,35:3
39,36:3
39,37:3
39,38:2
39,40:2
39,43:3
40,4:1
40,10:1
40,22:1
40,24:1
40,25:1
40,26:1
40,27:1
40,32:1
40,33:1
40,34:1
40,35:1
40,36:1
40,37:1
40,43:1
41,4:1
41,10:1
41,22:1
41,24:1
41,25:1
41,26:1
41,27:1
41,32:1
41,33:1
41,34:1
41,35:1
41,36:1
41,37:1
41,43:1
42,4:1
42,10:1
42,22:1
42,24:1
42,25:1
42,26:1
42,27:1
42,32:1
42,33:1
42,34:1
42,35:1
42,36:1
42,37:1
42,43:1
44,4:1
44,10:1
44,22:1
44,24:1
44,25:1
44,26:1
44,27:1
44,32:1
44,33:1
44,34:1
44,35:1
44,36:1
44,37:1
44,43:1
45,4:1
45,10:1
45,22:1
45,24:1
45,25:1
45,26:1
45,27:1
45,32:1
45,33:1
45,34:1
45,35:1
45,36:1
45,37:1
45,43:1

<end>

<optimal SALBP-1 value>
7


<rand seed>
467321153

